NAME:  test1
TYPE: AGTSP
COMMENT: gtsp tours
DIMENSION:  49
GTSP_SETS: 13
EDGE_WEIGHT_TYPE: EXPLICIT
EDGE_WEIGHT_FORMAT: FULL_MATRIX 
EDGE_WEIGHT_SECTION
999999	0	999999	999999	18819	18819	18819	18811	18808	18808	18800	999999	18827	18827	18827	18819	18829	18829	18829	18821	18825	18825	18825	18817	18813	18813	18813	18805	18813	18813	18813	18805	18835	18835	999999	999999	18815	18815	18815	18807	18803	18803	18795	999999	18811	18811	18803	999999	0
999999	999999	0	999999	18819	18819	18819	999999	18808	18808	18808	18800	18827	18827	18827	999999	18829	18829	18829	999999	18825	18825	18825	999999	18813	18813	18813	999999	18813	18813	18813	999999	18835	18835	18835	999999	18815	18815	18815	999999	18803	18803	18803	18795	18811	18811	18811	18803	0
999999	999999	999999	0	18819	18819	18819	18819	18808	18808	18808	18808	18827	18827	18827	18827	18829	18829	18829	18829	18825	18825	18825	18825	18813	18813	18813	18813	18813	18813	18813	18813	18835	18835	18835	18835	18815	18815	18815	18815	18803	18803	18803	18803	18811	18811	18811	18811	0
0	999999	999999	999999	18819	18819	18811	999999	18808	18800	999999	999999	18827	18827	18819	999999	18829	18829	18821	999999	18825	18825	18817	999999	18813	18813	18805	999999	18813	18813	18805	999999	18835	18835	18835	18827	18815	18815	18807	999999	18803	18795	999999	999999	18811	18803	999999	999999	0
18819	18819	18819	18811	999999	0	999999	999999	18819	18819	18819	18811	18800	18800	18792	999999	18804	18804	18796	999999	18800	18800	18792	999999	18836	18836	999999	999999	18815	18815	18815	18807	18812	18812	18812	18804	18827	18827	18827	18819	18814	18814	18814	18806	18827	18827	18827	18819	0
18819	18819	18819	999999	999999	999999	0	999999	18819	18819	18819	999999	18800	18800	18800	18792	18804	18804	18804	18796	18800	18800	18800	18792	18836	18836	18836	999999	18815	18815	18815	999999	18812	18812	18812	999999	18827	18827	18827	999999	18814	18814	18814	999999	18827	18827	18827	999999	0
18819	18819	18819	18819	999999	999999	999999	0	18819	18819	18819	18819	18800	18800	18800	18800	18804	18804	18804	18804	18800	18800	18800	18800	18836	18836	18836	18836	18815	18815	18815	18815	18812	18812	18812	18812	18827	18827	18827	18827	18814	18814	18814	18814	18827	18827	18827	18827	0
18819	18819	18811	999999	0	999999	999999	999999	18819	18819	18811	999999	18800	18792	999999	999999	18804	18796	999999	999999	18800	18792	999999	999999	18836	18836	18836	18828	18815	18815	18807	999999	18812	18812	18804	999999	18827	18827	18819	999999	18814	18814	18806	999999	18827	18827	18819	999999	0
18808	18808	18800	999999	18819	18819	18819	18811	999999	0	999999	999999	18829	18829	18829	18821	18833	18833	999999	999999	18820	18820	18820	18812	18831	18831	18831	18823	18828	18828	18828	18820	18826	18826	18826	18818	18833	18833	999999	999999	18819	18819	18819	18811	18829	18829	18829	18821	0
18808	18808	18808	18800	18819	18819	18819	999999	999999	999999	0	999999	18829	18829	18829	999999	18833	18833	18833	999999	18820	18820	18820	999999	18831	18831	18831	999999	18828	18828	18828	999999	18826	18826	18826	999999	18833	18833	18833	999999	18819	18819	18819	999999	18829	18829	18829	999999	0
18808	18808	18808	18808	18819	18819	18819	18819	999999	999999	999999	0	18829	18829	18829	18829	18833	18833	18833	18833	18820	18820	18820	18820	18831	18831	18831	18831	18828	18828	18828	18828	18826	18826	18826	18826	18833	18833	18833	18833	18819	18819	18819	18819	18829	18829	18829	18829	0
18808	18800	999999	999999	18819	18819	18811	999999	0	999999	999999	999999	18829	18829	18821	999999	18833	18833	18833	18825	18820	18820	18812	999999	18831	18831	18823	999999	18828	18828	18820	999999	18826	18826	18818	999999	18833	18833	18833	18825	18819	18819	18811	999999	18829	18829	18821	999999	0
18827	18827	18827	18819	18800	18800	18792	999999	18829	18829	18829	18821	999999	0	999999	999999	18795	18795	18787	999999	18805	18805	18797	999999	18841	18841	999999	999999	18818	18818	18818	18810	18815	18815	18815	18807	18829	18829	18829	18821	18819	18819	18819	18811	18831	18831	18831	18823	0
18827	18827	18827	999999	18800	18800	18800	18792	18829	18829	18829	999999	999999	999999	0	999999	18795	18795	18795	18787	18805	18805	18805	18797	18841	18841	18841	999999	18818	18818	18818	999999	18815	18815	18815	999999	18829	18829	18829	999999	18819	18819	18819	999999	18831	18831	18831	999999	0
18827	18827	18827	18827	18800	18800	18800	18800	18829	18829	18829	18829	999999	999999	999999	0	18795	18795	18795	18795	18805	18805	18805	18805	18841	18841	18841	18841	18818	18818	18818	18818	18815	18815	18815	18815	18829	18829	18829	18829	18819	18819	18819	18819	18831	18831	18831	18831	0
18827	18827	18819	999999	18800	18792	999999	999999	18829	18829	18821	999999	0	999999	999999	999999	18795	18787	999999	999999	18805	18797	999999	999999	18841	18841	18841	18833	18818	18818	18810	999999	18815	18815	18807	999999	18829	18829	18821	999999	18819	18819	18811	999999	18831	18831	18823	999999	0
18829	18829	18829	18821	18804	18804	18796	999999	18833	18833	999999	999999	18795	18795	18787	999999	999999	0	999999	999999	18810	18810	18802	999999	18841	18841	999999	999999	18816	18816	18816	18808	18820	18820	18820	18812	18828	18828	18828	18820	18820	18820	18820	18812	18830	18830	18830	18822	0
18829	18829	18829	999999	18804	18804	18804	18796	18833	18833	18833	999999	18795	18795	18795	18787	999999	999999	0	999999	18810	18810	18810	18802	18841	18841	18841	999999	18816	18816	18816	999999	18820	18820	18820	999999	18828	18828	18828	999999	18820	18820	18820	999999	18830	18830	18830	999999	0
18829	18829	18829	18829	18804	18804	18804	18804	18833	18833	18833	18833	18795	18795	18795	18795	999999	999999	999999	0	18810	18810	18810	18810	18841	18841	18841	18841	18816	18816	18816	18816	18820	18820	18820	18820	18828	18828	18828	18828	18820	18820	18820	18820	18830	18830	18830	18830	0
18829	18829	18821	999999	18804	18796	999999	999999	18833	18833	18833	18825	18795	18787	999999	999999	0	999999	999999	999999	18810	18802	999999	999999	18841	18841	18841	18833	18816	18816	18808	999999	18820	18820	18812	999999	18828	18828	18820	999999	18820	18820	18812	999999	18830	18830	18822	999999	0
18825	18825	18825	18817	18800	18800	18792	999999	18820	18820	18820	18812	18805	18805	18797	999999	18810	18810	18802	999999	999999	0	999999	999999	18845	18845	999999	999999	18826	18826	18826	18818	18802	18802	18794	999999	18836	18836	999999	999999	18823	18823	18823	18815	18836	18836	999999	999999	0
18825	18825	18825	999999	18800	18800	18800	18792	18820	18820	18820	999999	18805	18805	18805	18797	18810	18810	18810	18802	999999	999999	0	999999	18845	18845	18845	999999	18826	18826	18826	999999	18802	18802	18802	18794	18836	18836	18836	999999	18823	18823	18823	999999	18836	18836	18836	999999	0
18825	18825	18825	18825	18800	18800	18800	18800	18820	18820	18820	18820	18805	18805	18805	18805	18810	18810	18810	18810	999999	999999	999999	0	18845	18845	18845	18845	18826	18826	18826	18826	18802	18802	18802	18802	18836	18836	18836	18836	18823	18823	18823	18823	18836	18836	18836	18836	0
18825	18825	18817	999999	18800	18792	999999	999999	18820	18820	18812	999999	18805	18797	999999	999999	18810	18802	999999	999999	0	999999	999999	999999	18845	18845	18845	18837	18826	18826	18818	999999	18802	18794	999999	999999	18836	18836	18836	18828	18823	18823	18815	999999	18836	18836	18836	18828	0
18813	18813	18813	18805	18836	18836	999999	999999	18831	18831	18831	18823	18841	18841	999999	999999	18841	18841	999999	999999	18845	18845	999999	999999	999999	0	999999	999999	18815	18815	18815	18807	18856	18856	999999	999999	18806	18806	18798	999999	18812	18812	18812	18804	18801	18801	18793	999999	0
18813	18813	18813	999999	18836	18836	18836	999999	18831	18831	18831	999999	18841	18841	18841	999999	18841	18841	18841	999999	18845	18845	18845	999999	999999	999999	0	999999	18815	18815	18815	999999	18856	18856	18856	999999	18806	18806	18806	18798	18812	18812	18812	999999	18801	18801	18801	18793	0
18813	18813	18813	18813	18836	18836	18836	18836	18831	18831	18831	18831	18841	18841	18841	18841	18841	18841	18841	18841	18845	18845	18845	18845	999999	999999	999999	0	18815	18815	18815	18815	18856	18856	18856	18856	18806	18806	18806	18806	18812	18812	18812	18812	18801	18801	18801	18801	0
18813	18813	18805	999999	18836	18836	18836	18828	18831	18831	18823	999999	18841	18841	18841	18833	18841	18841	18841	18833	18845	18845	18845	18837	0	999999	999999	999999	18815	18815	18807	999999	18856	999999	999999	999999	18806	18798	999999	999999	18812	18812	18804	999999	18801	18793	999999	999999	0
18813	18813	18813	18805	18815	18815	18815	18807	18828	18828	18828	18820	18818	18818	18818	18810	18816	18816	18816	18808	18826	18826	18826	18818	18815	18815	18815	18807	999999	0	999999	999999	18838	18838	999999	999999	18801	18801	18793	999999	18799	18799	18791	999999	18804	18804	18796	999999	0
18813	18813	18813	999999	18815	18815	18815	999999	18828	18828	18828	999999	18818	18818	18818	999999	18816	18816	18816	999999	18826	18826	18826	999999	18815	18815	18815	999999	999999	999999	0	999999	18838	18838	18838	999999	18801	18801	18801	18793	18799	18799	18799	18791	18804	18804	18804	18796	0
18813	18813	18813	18813	18815	18815	18815	18815	18828	18828	18828	18828	18818	18818	18818	18818	18816	18816	18816	18816	18826	18826	18826	18826	18815	18815	18815	18815	999999	999999	999999	0	18838	18838	18838	18838	18801	18801	18801	18801	18799	18799	18799	18799	18804	18804	18804	18804	0
18813	18813	18805	999999	18815	18815	18807	999999	18828	18828	18820	999999	18818	18818	18810	999999	18816	18816	18808	999999	18826	18826	18818	999999	18815	18815	18807	999999	0	999999	999999	999999	18838	18838	18838	18830	18801	18793	999999	999999	18799	18791	999999	999999	18804	18796	999999	999999	0
18835	18835	999999	999999	18812	18812	18812	18804	18826	18826	18826	18818	18815	18815	18815	18807	18820	18820	18820	18812	18802	18802	18794	999999	18856	18856	999999	999999	18838	18838	999999	999999	999999	0	999999	999999	18849	18849	999999	999999	18835	18835	999999	999999	18848	18848	999999	999999	0
18835	18835	18835	999999	18812	18812	18812	999999	18826	18826	18826	999999	18815	18815	18815	999999	18820	18820	18820	999999	18802	18802	18802	18794	18856	18856	18856	999999	18838	18838	18838	999999	999999	999999	0	999999	18849	18849	18849	999999	18835	18835	18835	999999	18848	18848	18848	999999	0
18835	18835	18835	18835	18812	18812	18812	18812	18826	18826	18826	18826	18815	18815	18815	18815	18820	18820	18820	18820	18802	18802	18802	18802	18856	18856	18856	18856	18838	18838	18838	18838	999999	999999	999999	0	18849	18849	18849	18849	18835	18835	18835	18835	18848	18848	18848	18848	0
18835	18835	18835	18827	18812	18812	18804	999999	18826	18826	18818	999999	18815	18815	18807	999999	18820	18820	18812	999999	18802	18794	999999	999999	18856	999999	999999	999999	18838	18838	18838	18830	0	999999	999999	999999	18849	18849	18849	18841	18835	18835	18835	18827	18848	18848	18848	18840	0
18815	18815	18815	18807	18827	18827	18827	18819	18833	18833	999999	999999	18829	18829	18829	18821	18828	18828	18828	18820	18836	18836	999999	999999	18806	18806	18798	999999	18801	18801	18793	999999	18849	18849	999999	999999	999999	0	999999	999999	18805	18805	18797	999999	18795	18795	18787	999999	0
18815	18815	18815	999999	18827	18827	18827	999999	18833	18833	18833	999999	18829	18829	18829	999999	18828	18828	18828	999999	18836	18836	18836	999999	18806	18806	18806	18798	18801	18801	18801	18793	18849	18849	18849	999999	999999	999999	0	999999	18805	18805	18805	18797	18795	18795	18795	18787	0
18815	18815	18815	18815	18827	18827	18827	18827	18833	18833	18833	18833	18829	18829	18829	18829	18828	18828	18828	18828	18836	18836	18836	18836	18806	18806	18806	18806	18801	18801	18801	18801	18849	18849	18849	18849	999999	999999	999999	0	18805	18805	18805	18805	18795	18795	18795	18795	0
18815	18815	18807	999999	18827	18827	18819	999999	18833	18833	18833	18825	18829	18829	18821	999999	18828	18828	18820	999999	18836	18836	18836	18828	18806	18798	999999	999999	18801	18793	999999	999999	18849	18849	18849	18841	0	999999	999999	999999	18805	18797	999999	999999	18795	18787	999999	999999	0
18803	18803	18795	999999	18814	18814	18814	18806	18819	18819	18819	18811	18819	18819	18819	18811	18820	18820	18820	18812	18823	18823	18823	18815	18812	18812	18812	18804	18799	18799	18791	999999	18835	18835	999999	999999	18805	18805	18797	999999	999999	0	999999	999999	18803	18803	18795	999999	0
18803	18803	18803	18795	18814	18814	18814	999999	18819	18819	18819	999999	18819	18819	18819	999999	18820	18820	18820	999999	18823	18823	18823	999999	18812	18812	18812	999999	18799	18799	18799	18791	18835	18835	18835	999999	18805	18805	18805	18797	999999	999999	0	999999	18803	18803	18803	18795	0
18803	18803	18803	18803	18814	18814	18814	18814	18819	18819	18819	18819	18819	18819	18819	18819	18820	18820	18820	18820	18823	18823	18823	18823	18812	18812	18812	18812	18799	18799	18799	18799	18835	18835	18835	18835	18805	18805	18805	18805	999999	999999	999999	0	18803	18803	18803	18803	0
18803	18795	999999	999999	18814	18814	18806	999999	18819	18819	18811	999999	18819	18819	18811	999999	18820	18820	18812	999999	18823	18823	18815	999999	18812	18812	18804	999999	18799	18791	999999	999999	18835	18835	18835	18827	18805	18797	999999	999999	0	999999	999999	999999	18803	18795	999999	999999	0
18811	18811	18803	999999	18827	18827	18827	18819	18829	18829	18829	18821	18831	18831	18831	18823	18830	18830	18830	18822	18836	18836	999999	999999	18801	18801	18793	999999	18804	18804	18796	999999	18848	18848	999999	999999	18795	18795	18787	999999	18803	18803	18795	999999	999999	0	999999	999999	0
18811	18811	18811	18803	18827	18827	18827	999999	18829	18829	18829	999999	18831	18831	18831	999999	18830	18830	18830	999999	18836	18836	18836	999999	18801	18801	18801	18793	18804	18804	18804	18796	18848	18848	18848	999999	18795	18795	18795	18787	18803	18803	18803	18795	999999	999999	0	999999	0
18811	18811	18811	18811	18827	18827	18827	18827	18829	18829	18829	18829	18831	18831	18831	18831	18830	18830	18830	18830	18836	18836	18836	18836	18801	18801	18801	18801	18804	18804	18804	18804	18848	18848	18848	18848	18795	18795	18795	18795	18803	18803	18803	18803	999999	999999	999999	0	0
18811	18803	999999	999999	18827	18827	18819	999999	18829	18829	18821	999999	18831	18831	18823	999999	18830	18830	18822	999999	18836	18836	18836	18828	18801	18793	999999	999999	18804	18796	999999	999999	18848	18848	18848	18840	18795	18787	999999	999999	18803	18795	999999	999999	0	999999	999999	999999	0
18782	999999	999999	999999	18782	999999	999999	999999	18782	999999	999999	999999	18782	999999	999999	999999	18782	999999	999999	999999	18782	999999	999999	999999	18782	999999	999999	999999	18782	999999	999999	999999	18782	999999	999999	999999	18782	999999	999999	999999	18782	999999	999999	999999	18782	999999	999999	999999	999999
GTSP_SET_SECTION:
1 1 2 3 4 -1
2 5 6 7 8 -1
3 9 10 11 12 -1
4 13 14 15 16 -1
5 17 18 19 20 -1
6 21 22 23 24 -1
7 25 26 27 28 -1
8 29 30 31 32 -1
9 33 34 35 36 -1
10 37 38 39 40 -1
11 41 42 43 44 -1
12 45 46 47 48 -1
13 49 -1
EOF